101
38
44
84
263
390
422
424
431
437
439
443
450
598
671
674
733
746
747
991
1013
1041
1132
1270
1272
1285
1365
1368
1418
1555
1558
1567
1571
1586
1589
1591
1644
1645
1737
1739
1823
1870
1874
1886
1888
2045
2055
2066
2085
2086
2091
2249
2315
2316
2433
2436
2437
2603
2621
2625
2753
2823
2858
2866
2881
2886
2898
2900
2960
3033
3040
3316
3434
3437
3551
3567
3591
3592
3614
3620
3625
3626
3629
3673
3747
3756
3766
3775
3776
3789
3791
3810
3811
3878
3987
3989
3995
4181
4182
4184
4186
4341